10 10 4

0 111 215 432 133 256 203 447 300 115 
403 0 238 95 406 473 242 141 481 135 
373 134 0 215 262 74 425 192 126 350 
255 108 473 0 446 376 395 377 460 150 
286 406 156 351 0 308 101 152 214 73 
344 305 53 429 384 0 345 350 352 369 
481 494 201 330 455 260 0 59 156 342 
404 483 301 260 475 414 122 0 326 221 
173 184 141 197 235 152 407 163 0 487 
458 220 94 83 200 88 234 481 249 0 

358.71 0 2
358.71 1 8
358.71 2 1
358.71 3 2
358.71 4 0
358.71 5 2
358.71 6 7
358.71 7 5
358.71 8 7
358.71 9 6

